c description: Random 3-CNF over 20 variables and 85 clauses
c generator: CNFgen (0.9.2)
c copyright: (C) 2012-2022 Massimo Lauria <massimo.lauria@uniroma1.it>
c url: https://massimolauria.net/cnfgen
c command line: cnfgen --output CNF_4.28/20_bit_85_903.cnf randkcnf 3 20 85
c
p cnf 20 85
7 -19 -20 0
-4 16 -19 0
-3 -16 17 0
3 -10 17 0
-4 6 -11 0
-3 -4 -11 0
-2 -5 14 0
3 -5 -6 0
2 -15 -19 0
-6 -11 20 0
-6 12 -14 0
10 -19 -20 0
3 16 -20 0
-1 -4 -16 0
8 -15 -19 0
4 5 -6 0
-6 -15 -17 0
-6 7 -14 0
-13 17 18 0
6 -11 17 0
-1 8 10 0
1 11 12 0
-8 9 -17 0
-4 14 17 0
-4 11 -14 0
3 -8 -14 0
-4 6 -14 0
4 -13 -20 0
-11 -14 19 0
3 12 -15 0
5 -8 -9 0
7 -15 -20 0
-2 -14 20 0
3 9 -15 0
-6 -15 -20 0
1 -2 -10 0
10 14 -17 0
-3 -8 12 0
4 16 19 0
-11 -18 -19 0
-10 19 20 0
-4 15 20 0
-1 8 -10 0
-4 6 10 0
5 -14 -15 0
-7 8 9 0
2 -4 -8 0
-5 11 -14 0
3 -8 -10 0
-1 2 18 0
2 -5 -14 0
-11 -14 16 0
3 11 -12 0
3 -5 7 0
1 8 19 0
-1 -9 11 0
4 11 -20 0
-1 -4 -12 0
1 10 11 0
-1 2 -12 0
-12 -16 18 0
-7 11 -19 0
-3 8 16 0
3 -5 -9 0
-6 -10 19 0
-2 -4 11 0
4 -11 -12 0
5 -8 14 0
-6 17 18 0
-2 -4 -13 0
5 -10 16 0
8 -9 15 0
-12 -14 -18 0
1 4 19 0
-8 9 -14 0
1 -2 5 0
6 7 10 0
8 -9 -12 0
-5 6 7 0
2 -6 14 0
-3 -16 -18 0
2 -13 -19 0
14 15 -17 0
-4 10 -13 0
-2 3 -19 0
